
Gurobi 9.5.2 (mac64[arm]) logging started Wed Apr 19 19:15:33 2023

Set parameter LogFile to value "Java/output/iterative_model/scenario_seed_2_nJob_30_machineCount_1/mip_increment_2/log.txt"
Gurobi Optimizer version 9.5.2 build v9.5.2rc0 (mac64[arm])
Thread count: 8 physical cores, 8 logical processors, using up to 8 threads
Optimize a model with 722 rows, 3360 columns and 22953 nonzeros
Model fingerprint: 0xe07df82d
Variable types: 0 continuous, 3360 integer (3360 binary)
Coefficient statistics:
  Matrix range     [1e+00, 2e+02]
  Objective range  [2e+01, 5e+06]
  Bounds range     [1e+00, 1e+00]
  RHS range        [1e+00, 1e+00]
Found heuristic solution: objective 2.609200e+07
Presolve removed 44 rows and 282 columns
Presolve time: 0.03s
Presolved: 678 rows, 3078 columns, 20369 nonzeros
Variable types: 0 continuous, 3078 integer (3072 binary)
Found heuristic solution: objective 1.977626e+07

Root relaxation: objective 6.921165e+03, 668 iterations, 0.01 seconds (0.02 work units)

    Nodes    |    Current Node    |     Objective Bounds      |     Work
 Expl Unexpl |  Obj  Depth IntInf | Incumbent    BestBd   Gap | It/Node Time

     0     0 6921.16465    0   71 1.9776e+07 6921.16465   100%     -    0s
H    0     0                    1.242672e+07 6921.16465   100%     -    0s
H    0     0                    5963264.0000 6921.16465   100%     -    0s
H    0     0                    5405248.0000 6921.16465   100%     -    0s
H    0     0                    4454048.0000 6921.44656   100%     -    0s
H    0     0                    2721152.0000 6921.44656   100%     -    0s
     0     0 7167.32140    0  118 2721152.00 7167.32140   100%     -    0s
H    0     0                    19200.000000 7167.32140  62.7%     -    0s
     0     0 7213.43823    0  129 19200.0000 7213.43823  62.4%     -    0s
     0     0 7225.02564    0   63 19200.0000 7225.02564  62.4%     -    0s
H    0     0                    19008.000000 7225.02564  62.0%     -    0s
H    0     0                    18944.000000 7225.02564  61.9%     -    0s
     0     0 7558.03468    0  127 18944.0000 7558.03468  60.1%     -    0s
H    0     0                    18720.000000 7558.03468  59.6%     -    0s
     0     0 7561.95543    0  109 18720.0000 7561.95543  59.6%     -    0s
     0     0 7562.86475    0  118 18720.0000 7562.86475  59.6%     -    0s
     0     0 7562.91508    0  126 18720.0000 7562.91508  59.6%     -    0s
H    0     0                    9472.0000000 7562.91508  20.2%     -    0s
     0     0 7601.81740    0  136 9472.00000 7601.81740  19.7%     -    0s
     0     0 7605.26659    0  138 9472.00000 7605.26659  19.7%     -    0s
     0     0 7606.65266    0  126 9472.00000 7606.65266  19.7%     -    0s
     0     0 7606.81209    0  132 9472.00000 7606.81209  19.7%     -    0s
     0     0 7644.46285    0  164 9472.00000 7644.46285  19.3%     -    0s
H    0     0                    9440.0000000 7644.46285  19.0%     -    0s
     0     0 7657.75232    0  155 9440.00000 7657.75232  18.9%     -    0s
     0     0 7659.50863    0  157 9440.00000 7659.50863  18.9%     -    0s
     0     0 7659.50863    0  158 9440.00000 7659.50863  18.9%     -    0s
     0     0 7673.91112    0  174 9440.00000 7673.91112  18.7%     -    0s
     0     0 7677.39928    0  169 9440.00000 7677.39928  18.7%     -    0s
     0     0 7677.48393    0  174 9440.00000 7677.48393  18.7%     -    0s
     0     0 7686.65337    0  166 9440.00000 7686.65337  18.6%     -    0s
     0     0 7688.97357    0  168 9440.00000 7688.97357  18.5%     -    0s
H    0     0                    9408.0000000 7688.97357  18.3%     -    0s
     0     0 7690.01313    0  176 9408.00000 7690.01313  18.3%     -    0s
     0     0 7690.78083    0  177 9408.00000 7690.78083  18.3%     -    0s
     0     0 7690.84877    0  181 9408.00000 7690.84877  18.3%     -    0s
H    0     0                    8704.0000000 7690.84877  11.6%     -    0s
     0     0 7695.32023    0  191 8704.00000 7695.32023  11.6%     -    0s
     0     0 7696.01448    0  191 8704.00000 7696.01448  11.6%     -    0s
     0     0 7696.01448    0  194 8704.00000 7696.01448  11.6%     -    0s
     0     0 7697.39499    0  192 8704.00000 7697.39499  11.6%     -    0s
     0     0 7703.89464    0  185 8704.00000 7703.89464  11.5%     -    0s
H    0     0                    8608.0000000 7703.89464  10.5%     -    0s
     0     2 7703.89464    0  181 8608.00000 7703.89464  10.5%     -    0s
H   31    20                    8224.0000000 7859.86783  4.43%   113    0s
H   73    39                    8064.0000000 7957.90722  1.32%  62.8    0s
H   79    39                    8000.0000000 7957.90722  0.53%  60.4    0s

Cutting planes:
  Cover: 2
  Clique: 53
  MIR: 35
  StrongCG: 17
  GUB cover: 31
  Inf proof: 1
  Zero half: 15
  Relax-and-lift: 2

Explored 110 nodes (9926 simplex iterations) in 0.52 seconds (0.70 work units)
Thread count was 8 (of 8 available processors)

Solution count 10: 8000 8064 8224 ... 18944

Optimal solution found (tolerance 1.00e-04)
Best objective 8.000000000000e+03, best bound 8.000000000000e+03, gap 0.0000%

Gurobi 9.5.2 (mac64[arm]) logging started Wed Apr 19 19:15:33 2023

Set parameter LogFile to value "Java/output/iterative_model/scenario_seed_2_nJob_30_machineCount_1/mip_increment_2/log.txt"
Gurobi Optimizer version 9.5.2 build v9.5.2rc0 (mac64[arm])
Thread count: 8 physical cores, 8 logical processors, using up to 8 threads
Optimize a model with 718 rows, 2316 columns and 16791 nonzeros
Model fingerprint: 0x29ec1d0d
Variable types: 0 continuous, 2316 integer (2316 binary)
Coefficient statistics:
  Matrix range     [1e+00, 2e+02]
  Objective range  [2e+02, 7e+05]
  Bounds range     [1e+00, 1e+00]
  RHS range        [1e+00, 1e+00]
Presolve removed 217 rows and 230 columns
Presolve time: 0.02s
Presolved: 501 rows, 2086 columns, 15125 nonzeros
Variable types: 0 continuous, 2086 integer (2086 binary)

Root relaxation: objective 4.529637e+03, 944 iterations, 0.02 seconds (0.03 work units)

    Nodes    |    Current Node    |     Objective Bounds      |     Work
 Expl Unexpl |  Obj  Depth IntInf | Incumbent    BestBd   Gap | It/Node Time

     0     0 4529.63709    0   66          - 4529.63709      -     -    0s
H    0     0                    1561176.0000 4529.63709   100%     -    0s
H    0     0                    344576.00000 4529.63709  98.7%     -    0s
     0     0 4981.17106    0   95 344576.000 4981.17106  98.6%     -    0s
H    0     0                    212760.00000 4981.17106  97.7%     -    0s
H    0     0                    158464.00000 4981.17106  96.9%     -    0s
     0     0 5491.13959    0  113 158464.000 5491.13959  96.5%     -    0s
     0     0 5528.94120    0  117 158464.000 5528.94120  96.5%     -    0s
     0     0 5528.97577    0  119 158464.000 5528.97577  96.5%     -    0s
     0     0 6908.59633    0  141 158464.000 6908.59633  95.6%     -    0s
H    0     0                    153248.00000 7782.06622  94.9%     -    0s
H    0     0                    24256.000000 7782.06622  67.9%     -    0s
H    0     0                    24232.000000 7782.06622  67.9%     -    0s
     0     0 7782.06622    0  126 24232.0000 7782.06622  67.9%     -    0s
     0     0 7874.99693    0  137 24232.0000 7874.99693  67.5%     -    0s
     0     0 7903.54586    0  141 24232.0000 7903.54586  67.4%     -    0s
     0     0 7912.39543    0  142 24232.0000 7912.39543  67.3%     -    0s
     0     0 7912.92864    0  143 24232.0000 7912.92864  67.3%     -    0s
     0     0 11271.0779    0  154 24232.0000 11271.0779  53.5%     -    0s
     0     0 11271.0779    0   78 24232.0000 11271.0779  53.5%     -    0s
     0     0 11271.0779    0  109 24232.0000 11271.0779  53.5%     -    0s
     0     0 12093.0161    0  113 24232.0000 12093.0161  50.1%     -    0s
     0     0 12227.5103    0   78 24232.0000 12227.5103  49.5%     -    0s
     0     0 12230.5818    0   65 24232.0000 12230.5818  49.5%     -    0s
     0     0 12230.7963    0   75 24232.0000 12230.7963  49.5%     -    0s
     0     0 12242.9068    0   56 24232.0000 12242.9068  49.5%     -    0s
H    0     0                    16328.000000 12242.9068  25.0%     -    0s
H    0     0                    12272.000000 12242.9068  0.24%     -    0s
H    0     0                    12256.000000 12242.9068  0.11%     -    0s
     0     0 12244.0000    0   23 12256.0000 12244.0000  0.10%     -    0s
*    0     0               0    12248.000000 12248.0000  0.00%     -    0s

Cutting planes:
  Gomory: 4
  Cover: 3
  Clique: 21
  MIR: 28
  StrongCG: 11
  GUB cover: 39
  Zero half: 14
  RLT: 3

Explored 1 nodes (5287 simplex iterations) in 0.47 seconds (0.60 work units)
Thread count was 8 (of 8 available processors)

Solution count 10: 12248 12256 12272 ... 344576

Optimal solution found (tolerance 1.00e-04)
Best objective 1.224800000000e+04, best bound 1.224800000000e+04, gap 0.0000%

Gurobi 9.5.2 (mac64[arm]) logging started Wed Apr 19 19:15:34 2023

Set parameter LogFile to value "Java/output/iterative_model/scenario_seed_2_nJob_30_machineCount_1/mip_increment_2/log.txt"
Gurobi Optimizer version 9.5.2 build v9.5.2rc0 (mac64[arm])
Thread count: 8 physical cores, 8 logical processors, using up to 8 threads
Optimize a model with 730 rows, 1556 columns and 10136 nonzeros
Model fingerprint: 0x84626562
Variable types: 0 continuous, 1556 integer (1556 binary)
Coefficient statistics:
  Matrix range     [1e+00, 2e+02]
  Objective range  [1e+02, 8e+04]
  Bounds range     [1e+00, 1e+00]
  RHS range        [1e+00, 1e+00]
Presolve removed 431 rows and 329 columns
Presolve time: 0.01s
Presolved: 299 rows, 1227 columns, 7852 nonzeros
Variable types: 0 continuous, 1227 integer (1227 binary)

Root relaxation: objective 2.994530e+04, 433 iterations, 0.01 seconds (0.01 work units)

    Nodes    |    Current Node    |     Objective Bounds      |     Work
 Expl Unexpl |  Obj  Depth IntInf | Incumbent    BestBd   Gap | It/Node Time

     0     0 29945.3043    0   40          - 29945.3043      -     -    0s
H    0     0                    180038.00000 29945.3043  83.4%     -    0s
H    0     0                    159222.00000 29945.3043  81.2%     -    0s
H    0     0                    126650.00000 29945.3043  76.4%     -    0s
     0     0 30564.8000    0   48 126650.000 30564.8000  75.9%     -    0s
     0     0 30564.8000    0   48 126650.000 30564.8000  75.9%     -    0s
     0     0 30600.5803    0   99 126650.000 30600.5803  75.8%     -    0s
H    0     0                    42870.000000 30600.5803  28.6%     -    0s
     0     0 30603.7736    0  100 42870.0000 30603.7736  28.6%     -    0s
     0     0 30606.5913    0  104 42870.0000 30606.5913  28.6%     -    0s
     0     0 30655.5828    0   92 42870.0000 30655.5828  28.5%     -    0s
     0     0 30662.5304    0   78 42870.0000 30662.5304  28.5%     -    0s
     0     0 30663.1970    0   81 42870.0000 30663.1970  28.5%     -    0s
     0     0 30678.0952    0   77 42870.0000 30678.0952  28.4%     -    0s
     0     0 30716.4828    0   84 42870.0000 30716.4828  28.3%     -    0s
     0     0 30720.0643    0  108 42870.0000 30720.0643  28.3%     -    0s
     0     0 30720.2712    0  113 42870.0000 30720.2712  28.3%     -    0s
     0     0 30758.0529    0  103 42870.0000 30758.0529  28.3%     -    0s
     0     0 30799.1505    0  104 42870.0000 30799.1505  28.2%     -    0s
     0     0 30800.5749    0  103 42870.0000 30800.5749  28.2%     -    0s
     0     0 30805.2960    0  109 42870.0000 30805.2960  28.1%     -    0s
     0     0 31112.9318    0  104 42870.0000 31112.9318  27.4%     -    0s
     0     0 31125.3405    0  114 42870.0000 31125.3405  27.4%     -    0s
     0     0 31125.3405    0  117 42870.0000 31125.3405  27.4%     -    0s
     0     0 31192.8513    0  114 42870.0000 31192.8513  27.2%     -    0s
     0     0 31193.3798    0  119 42870.0000 31193.3798  27.2%     -    0s
     0     0 31235.6061    0  118 42870.0000 31235.6061  27.1%     -    0s
     0     0 31243.9346    0  121 42870.0000 31243.9346  27.1%     -    0s
     0     0 31244.1750    0  121 42870.0000 31244.1750  27.1%     -    0s
     0     0 31289.2778    0   67 42870.0000 31289.2778  27.0%     -    0s
     0     0 31296.0000    0    8 42870.0000 31296.0000  27.0%     -    0s
     0     0 31300.7899    0  146 42870.0000 31300.7899  27.0%     -    0s
     0     0 31301.4242    0   76 42870.0000 31301.4242  27.0%     -    0s
     0     0 31313.4166    0  146 42870.0000 31313.4166  27.0%     -    0s
     0     0 31313.9765    0  152 42870.0000 31313.9765  27.0%     -    0s
     0     0 31319.6914    0  142 42870.0000 31319.6914  26.9%     -    0s
     0     0 31319.6914    0  134 42870.0000 31319.6914  26.9%     -    0s
     0     2 31319.8178    0  133 42870.0000 31319.8178  26.9%     -    0s
H   32    40                    39190.000000 31641.6947  19.3%   114    0s
H   34    40                    33102.000000 31679.6914  4.30%   113    0s

Cutting planes:
  Gomory: 2
  Cover: 8
  Clique: 42
  MIR: 49
  StrongCG: 29
  GUB cover: 61
  Inf proof: 2
  Zero half: 24
  Mod-K: 1
  RLT: 5

Explored 111 nodes (9939 simplex iterations) in 0.48 seconds (0.50 work units)
Thread count was 8 (of 8 available processors)

Solution count 6: 33102 39190 42870 ... 180038

Optimal solution found (tolerance 1.00e-04)
Best objective 3.310200000000e+04, best bound 3.310200000000e+04, gap 0.0000%

Gurobi 9.5.2 (mac64[arm]) logging started Wed Apr 19 19:15:34 2023

Set parameter LogFile to value "Java/output/iterative_model/scenario_seed_2_nJob_30_machineCount_1/mip_increment_2/log.txt"
Gurobi Optimizer version 9.5.2 build v9.5.2rc0 (mac64[arm])
Thread count: 8 physical cores, 8 logical processors, using up to 8 threads
Optimize a model with 1498 rows, 20608 columns and 227480 nonzeros
Model fingerprint: 0xf1dbea8a
Variable types: 0 continuous, 20608 integer (20608 binary)
Coefficient statistics:
  Matrix range     [1e+00, 2e+02]
  Objective range  [2e+00, 5e+06]
  Bounds range     [1e+00, 1e+00]
  RHS range        [1e+00, 1e+00]

Warning: Completing partial solution with 20516 unfixed non-continuous variables out of 20608
User MIP start produced solution with objective 24219 (0.02s)
Loaded user MIP start with objective 24219

Presolve removed 39 rows and 1874 columns
Presolve time: 0.21s
Presolved: 1459 rows, 18734 columns, 203465 nonzeros
Variable types: 0 continuous, 18734 integer (18712 binary)

Root relaxation: objective 1.215294e+04, 15651 iterations, 1.33 seconds (3.18 work units)

    Nodes    |    Current Node    |     Objective Bounds      |     Work
 Expl Unexpl |  Obj  Depth IntInf | Incumbent    BestBd   Gap | It/Node Time

     0     0 12152.9370    0  302 24219.0000 12152.9370  49.8%     -    1s
H    0     0                    24171.000000 12152.9370  49.7%     -    1s
     0     0 12252.0686    0  469 24171.0000 12252.0686  49.3%     -    2s
     0     0 12264.8988    0  491 24171.0000 12264.8988  49.3%     -    3s
     0     0 12265.0589    0  505 24171.0000 12265.0589  49.3%     -    3s
     0     0 12265.0862    0  502 24171.0000 12265.0862  49.3%     -    3s
     0     0 12339.6490    0  481 24171.0000 12339.6490  48.9%     -    5s
H    0     0                    24072.000000 12339.6490  48.7%     -    5s
     0     0 12362.7429    0  550 24072.0000 12362.7429  48.6%     -    6s
     0     0 12365.9918    0  560 24072.0000 12365.9918  48.6%     -    6s
     0     0 12366.0277    0  573 24072.0000 12366.0277  48.6%     -    7s
     0     0 12428.7517    0  566 24072.0000 12428.7517  48.4%     -    8s
     0     0 12428.7517    0  356 24072.0000 12428.7517  48.4%     -   10s
H    0     0                    24035.000000 12428.7517  48.3%     -   10s
     0     0 12428.7517    0  515 24035.0000 12428.7517  48.3%     -   11s
H    0     0                    24034.000000 12428.7517  48.3%     -   11s
     0     0 12486.4609    0  557 24034.0000 12486.4609  48.0%     -   12s
     0     0 12500.0368    0  547 24034.0000 12500.0368  48.0%     -   13s
     0     0 12505.0754    0  570 24034.0000 12505.0754  48.0%     -   13s
     0     0 12505.3345    0  583 24034.0000 12505.3345  48.0%     -   13s
     0     0 12505.3812    0  558 24034.0000 12505.3812  48.0%     -   13s
     0     0 12505.4072    0  590 24034.0000 12505.4072  48.0%     -   13s
     0     0 12540.8168    0  637 24034.0000 12540.8168  47.8%     -   14s
     0     0 12554.3839    0  666 24034.0000 12554.3839  47.8%     -   15s
     0     0 12556.1294    0  658 24034.0000 12556.1294  47.8%     -   15s
     0     0 12556.2307    0  653 24034.0000 12556.2307  47.8%     -   15s
     0     0 12610.4371    0  703 24034.0000 12610.4371  47.5%     -   16s
H    0     0                    24023.000000 12610.4371  47.5%     -   16s
     0     0 12628.3875    0  722 24023.0000 12628.3875  47.4%     -   17s
     0     0 12634.4823    0  741 24023.0000 12634.4823  47.4%     -   17s
     0     0 12635.4658    0  770 24023.0000 12635.4658  47.4%     -   17s
     0     0 12635.7221    0  762 24023.0000 12635.7221  47.4%     -   17s
     0     0 12635.7728    0  773 24023.0000 12635.7728  47.4%     -   17s
     0     0 12674.7533    0  693 24023.0000 12674.7533  47.2%     -   18s
H    0     0                    23991.000000 12674.7533  47.2%     -   18s
     0     0 12690.9440    0  753 23991.0000 12690.9440  47.1%     -   19s
     0     0 12691.6515    0  766 23991.0000 12691.6515  47.1%     -   19s
     0     0 12691.7496    0  784 23991.0000 12691.7496  47.1%     -   19s
     0     0 12716.7879    0  790 23991.0000 12716.7879  47.0%     -   20s
     0     0 12721.9487    0  825 23991.0000 12721.9487  47.0%     -   21s
     0     0 12723.7581    0  832 23991.0000 12723.7581  47.0%     -   21s
     0     0 12724.1749    0  837 23991.0000 12724.1749  47.0%     -   21s
     0     0 12724.3140    0  836 23991.0000 12724.3140  47.0%     -   21s
     0     0 12741.5144    0  840 23991.0000 12741.5144  46.9%     -   22s
     0     0 12745.8465    0  867 23991.0000 12745.8465  46.9%     -   22s
     0     0 12746.7821    0  869 23991.0000 12746.7821  46.9%     -   23s
     0     0 12746.8783    0  877 23991.0000 12746.8783  46.9%     -   23s
     0     0 12763.1577    0  839 23991.0000 12763.1577  46.8%     -   24s
     0     0 12766.7728    0  869 23991.0000 12766.7728  46.8%     -   25s
     0     0 12767.8051    0  895 23991.0000 12767.8051  46.8%     -   25s
     0     0 12768.0153    0  886 23991.0000 12768.0153  46.8%     -   25s
     0     0 12794.5740    0  889 23991.0000 12794.5740  46.7%     -   26s
H    0     0                    23975.000000 12794.5740  46.6%     -   26s
     0     0 12799.2408    0  895 23975.0000 12799.2408  46.6%     -   27s
     0     0 12799.8384    0  933 23975.0000 12799.8384  46.6%     -   27s
     0     0 12800.7345    0  937 23975.0000 12800.7345  46.6%     -   27s
     0     0 12800.9161    0  949 23975.0000 12800.9161  46.6%     -   27s
     0     0 12815.8916    0  909 23975.0000 12815.8916  46.5%     -   28s
H    0     0                    18431.000000 12815.8916  30.5%     -   29s
     0     0 12817.7198    0  898 18431.0000 12817.7198  30.5%     -   29s
     0     0 12818.3083    0  918 18431.0000 12818.3083  30.5%     -   29s
     0     0 12818.4674    0  923 18431.0000 12818.4674  30.5%     -   29s
     0     0 12869.4318    0  883 18431.0000 12869.4318  30.2%     -   31s
H    0     0                    18220.000000 12869.4318  29.4%     -   31s
H    0     0                    18214.000000 12869.4318  29.3%     -   31s
H    0     0                    18137.000000 12869.4318  29.0%     -   31s
     0     0 12877.8138    0  899 18137.0000 12877.8138  29.0%     -   32s
     0     0 12878.3648    0  930 18137.0000 12878.3648  29.0%     -   32s
     0     0 12878.6625    0  932 18137.0000 12878.6625  29.0%     -   32s
     0     0 12897.0187    0  929 18137.0000 12897.0187  28.9%     -   33s
H    0     0                    16175.000000 12897.0187  20.3%     -   34s
     0     0 12899.6122    0  948 16175.0000 12899.6122  20.2%     -   34s
     0     0 12901.2791    0  970 16175.0000 12901.2791  20.2%     -   35s
     0     0 12901.8299    0  984 16175.0000 12901.8299  20.2%     -   35s
     0     0 12940.4673    0  947 16175.0000 12940.4673  20.0%     -   36s
H    0     0                    15206.000000 12940.4673  14.9%     -   36s
     0     0 12944.4892    0  930 15206.0000 12944.4892  14.9%     -   37s
     0     0 12945.3018    0  980 15206.0000 12945.3018  14.9%     -   37s
     0     0 12946.3678    0  981 15206.0000 12946.3678  14.9%     -   38s
     0     0 12946.4401    0  975 15206.0000 12946.4401  14.9%     -   38s
     0     0 12966.2933    0  903 15206.0000 12966.2933  14.7%     -   39s
H    0     0                    15176.000000 12966.2933  14.6%     -   39s
     0     0 12973.0292    0  922 15176.0000 12973.0292  14.5%     -   40s
     0     0 12974.4498    0  957 15176.0000 12974.4498  14.5%     -   41s
     0     0 12974.7544    0  988 15176.0000 12974.7544  14.5%     -   41s
     0     0 13004.7250    0  942 15176.0000 13004.7250  14.3%     -   42s
     0     0 13011.6567    0  944 15176.0000 13011.6567  14.3%     -   43s
     0     0 13013.5160    0  967 15176.0000 13013.5160  14.2%     -   43s
     0     0 13014.0047    0  969 15176.0000 13014.0047  14.2%     -   44s
     0     0 13040.1592    0  954 15176.0000 13040.1592  14.1%     -   45s
     0     0 13045.9775    0  975 15176.0000 13045.9775  14.0%     -   46s
     0     0 13050.5100    0  989 15176.0000 13050.5100  14.0%     -   47s
     0     0 13051.0676    0  987 15176.0000 13051.0676  14.0%     -   47s
     0     0 13072.1127    0  942 15176.0000 13072.1127  13.9%     -   49s
     0     0 13079.2778    0  958 15176.0000 13079.2778  13.8%     -   50s
     0     0 13096.9378    0  985 15176.0000 13096.9378  13.7%     -   50s
     0     0 13097.4206    0 1008 15176.0000 13097.4206  13.7%     -   51s
     0     0 13106.6240    0  999 15176.0000 13106.6240  13.6%     -   51s
     0     0 13107.9583    0 1004 15176.0000 13107.9583  13.6%     -   52s
     0     0 13108.4999    0  991 15176.0000 13108.4999  13.6%     -   52s
     0     0 13154.9735    0 1010 15176.0000 13154.9735  13.3%     -   54s
     0     0 13157.8618    0 1041 15176.0000 13157.8618  13.3%     -   54s
     0     0 13158.6545    0 1048 15176.0000 13158.6545  13.3%     -   54s
     0     0 13229.3453    0  989 15176.0000 13229.3453  12.8%     -   55s
     0     0 13231.7437    0 1021 15176.0000 13231.7437  12.8%     -   56s
     0     0 13232.4202    0 1034 15176.0000 13232.4202  12.8%     -   57s
     0     0 13261.3961    0 1020 15176.0000 13261.3961  12.6%     -   58s
     0     0 13262.8518    0 1002 15176.0000 13262.8518  12.6%     -   58s
     0     0 13263.1000    0 1026 15176.0000 13263.1000  12.6%     -   59s
     0     0 13354.5038    0 1031 15176.0000 13354.5038  12.0%     -   61s
     0     0 13357.4611    0  952 15176.0000 13357.4611  12.0%     -   62s
     0     0 13358.0971    0  969 15176.0000 13358.0971  12.0%     -   62s
     0     0 13389.7848    0  976 15176.0000 13389.7848  11.8%     -   63s
     0     0 13391.7256    0 1028 15176.0000 13391.7256  11.8%     -   63s
     0     0 13392.1911    0 1033 15176.0000 13392.1911  11.8%     -   64s
     0     0 13416.4356    0  978 15176.0000 13416.4356  11.6%     -   65s
     0     0 13417.6103    0  994 15176.0000 13417.6103  11.6%     -   68s
     0     0 13498.4246    0  991 15176.0000 13498.4246  11.1%     -   69s
     0     0 13502.3616    0 1030 15176.0000 13502.3616  11.0%     -   70s
     0     0 13504.1866    0 1047 15176.0000 13504.1866  11.0%     -   71s
     0     0 13504.5801    0 1077 15176.0000 13504.5801  11.0%     -   71s
     0     0 13543.1740    0 1045 15176.0000 13543.1740  10.8%     -   73s
     0     0 13546.3175    0 1074 15176.0000 13546.3175  10.7%     -   73s
     0     0 13546.4111    0 1086 15176.0000 13546.4111  10.7%     -   74s
     0     0 13557.9685    0 1055 15176.0000 13557.9685  10.7%     -   75s
     0     0 13557.9685    0 1025 15176.0000 13557.9685  10.7%     -   75s
H    0     0                    15136.000000 13558.1249  10.4%     -   77s
     0     2 13558.1249    0 1014 15136.0000 13558.1249  10.4%     -   77s
     3     8 13635.3899    2  857 15136.0000 13558.6810  10.4%  3271   81s
    15    20 13663.9949    4 1087 15136.0000 13595.3207  10.2%  6562   88s
    23    28 13839.3570    5 1123 15136.0000 13642.2295  9.87%  9453  105s
    31    36 13970.7330    6 1046 15136.0000 13642.2295  9.87% 14790  110s
    39    43 14004.2906    6  991 15136.0000 13663.9949  9.73% 14070  118s
    47    52 14449.0703    7  974 15136.0000 13663.9949  9.73% 13155  123s
    58    58 14270.7149    7  972 15136.0000 13663.9949  9.73% 11540  127s
    68    66 14488.1817    8  903 15136.0000 13663.9949  9.73% 10745  132s
H   69    66                    14775.000000 13663.9949  7.52% 10589  132s
    76    75 14413.6029    8 1036 14775.0000 13663.9949  7.52% 10514  138s
    87    84     cutoff    9      14775.0000 13663.9949  7.52% 10196  143s
    98    93 14508.5392    9 1056 14775.0000 13663.9949  7.52%  9770  150s
   124   112 14514.3946   10 1035 14775.0000 13663.9949  7.52%  8887  159s
   140   123 14559.2420   11  945 14775.0000 13663.9949  7.52%  8276  163s
   159   127     cutoff   13      14775.0000 13663.9949  7.52%  7707  165s
   177   138     cutoff   13      14775.0000 13663.9949  7.52%  7131  170s
   198   146 14477.4181   17  594 14775.0000 13663.9949  7.52%  6854  176s
   218   155 14575.4550   19  604 14775.0000 13663.9949  7.52%  6660  184s
   231   170 14601.0588   20  598 14775.0000 13663.9949  7.52%  6778  189s
   246   181     cutoff   22      14775.0000 13663.9949  7.52%  6849  198s
H  253   181                    14770.000000 13663.9949  7.49%  6764  198s
   259   202 14630.8047   21  571 14770.0000 13663.9949  7.49%  6794  208s
   289   204 14704.0155   24  352 14770.0000 13663.9949  7.49%  6536  215s
   319   225 14738.1244   25  370 14770.0000 13696.4019  7.27%  6319  221s
   358   227 13729.0512    6 1114 14770.0000 13696.4019  7.27%  5900  229s
H  369   227                    14760.999999 13696.4019  7.21%  5781  229s
   382   230 13802.9919    8 1037 14761.0000 13696.4019  7.21%  5770  235s
   404   238 13939.1882    9 1029 14761.0000 13696.4019  7.21%  5691  242s
   418   253 13972.1057   10 1012 14761.0000 13696.4019  7.21%  5747  248s
   443   267 14067.9401   12 1020 14761.0000 13696.4019  7.21%  5705  255s
   461   280 14102.7228   15 1013 14761.0000 13696.4019  7.21%  5718  263s
   484   302 14210.4536   17  930 14761.0000 13696.4019  7.21%  5725  276s
H  505   302                    14621.000000 13696.4019  6.32%  5694  276s
H  506   309                    14469.000000 13696.4019  5.34%  5687  283s
   544   312 14436.1099   21  765 14469.0000 13696.4019  5.34%  5543  293s
H  550   312                    14414.000000 13696.4019  4.98%  5517  293s
   569   322     cutoff   22      14414.0000 13696.4019  4.98%  5484  303s
   599   339     cutoff   22      14414.0000 13696.4019  4.98%  5549  322s
   622   351 14068.6035   15  463 14414.0000 13696.4019  4.98%  5678  330s
   669   363     cutoff   24      14414.0000 13770.1794  4.47%  5595  338s
H  670   363                    14406.000000 13770.1794  4.41%  5586  338s
H  677   363                    14398.000000 13770.1794  4.36%  5562  338s
H  682   363                    14394.000000 13770.1794  4.33%  5571  338s
   697   379 13966.0387    9  978 14394.0000 13770.1794  4.33%  5621  347s
H  747   400                    14390.000000 13770.1794  4.31%  5581  356s
   800   429 14215.8839   11  941 14390.0000 13770.1794  4.31%  5478  365s
   883   442 14304.1416   14  725 14390.0000 13770.1794  4.31%  5194  373s
H  900   442                    14342.000000 13770.1794  3.99%  5199  373s
H  905   442                    14330.000000 13770.1794  3.91%  5237  373s
   947   443     cutoff   16      14330.0000 13791.5186  3.76%  5054  381s
H  993   431                    14306.000000 13791.5186  3.60%  5056  395s
  1049   434     cutoff   13      14306.0000 13791.5186  3.60%  5090  405s
  1095   434 13981.4842   12  875 14306.0000 13791.5186  3.60%  5134  416s
H 1143   430                    14274.000000 13791.5186  3.38%  5155  427s
  1178   429     cutoff   16      14274.0000 13791.5186  3.38%  5222  438s
  1240   423 14201.1669   18  784 14274.0000 13791.5186  3.38%  5217  452s
  1303   453     cutoff   18      14274.0000 13809.8092  3.25%  5234  465s
  1378   446 14234.7056    9  751 14274.0000 13810.3032  3.25%  5204  495s
  1453   421 14249.3141   10  737 14274.0000 13810.3032  3.25%  5137  509s
  1513   410     cutoff   10      14274.0000 13810.3032  3.25%  5194  525s
  1555   423 14234.8415   11  861 14274.0000 13810.3032  3.25%  5272  542s
  1630   424     cutoff   13      14274.0000 13886.6082  2.71%  5303  563s
  1675   422 14227.7914   10  814 14274.0000 13887.7045  2.71%  5344  581s
  1763   427     cutoff   12      14274.0000 13887.7045  2.71%  5352  597s

Cutting planes:
  Cover: 72
  Clique: 519
  MIR: 589
  StrongCG: 379
  GUB cover: 393
  Inf proof: 6
  Zero half: 29
  RLT: 3

Explored 1823 nodes (10206186 simplex iterations) in 597.02 seconds (2078.47 work units)
Thread count was 8 (of 8 available processors)

Solution count 10: 14274 14306 14330 ... 14469

Time limit reached
Best objective 1.427400000000e+04, best bound 1.388800000000e+04, gap 2.7042%
